NAME:  test1
TYPE: AGTSP
COMMENT: gtsp tours
DIMENSION:  49
GTSP_SETS: 13
EDGE_WEIGHT_TYPE: EXPLICIT
EDGE_WEIGHT_FORMAT: FULL_MATRIX 
EDGE_WEIGHT_SECTION
999999	0	999999	999999	23170	23170	999999	999999	23147	23147	23147	23139	23158	23158	23158	23150	23158	23158	23158	23150	23162	23162	23162	23154	23168	23168	23168	23160	23150	23150	23150	23142	23148	23148	23148	23140	23137	23137	23129	999999	23141	23141	23133	999999	23145	23145	23137	999999	0
999999	999999	0	999999	23170	23170	23170	999999	23147	23147	23147	999999	23158	23158	23158	999999	23158	23158	23158	999999	23162	23162	23162	999999	23168	23168	23168	999999	23150	23150	23150	999999	23148	23148	23148	999999	23137	23137	23137	23129	23141	23141	23141	23133	23145	23145	23145	23137	0
999999	999999	999999	0	23170	23170	23170	23170	23147	23147	23147	23147	23158	23158	23158	23158	23158	23158	23158	23158	23162	23162	23162	23162	23168	23168	23168	23168	23150	23150	23150	23150	23148	23148	23148	23148	23137	23137	23137	23137	23141	23141	23141	23141	23145	23145	23145	23145	0
0	999999	999999	999999	23170	23170	23170	23162	23147	23147	23139	999999	23158	23158	23150	999999	23158	23158	23150	999999	23162	23162	23154	999999	23168	23168	23160	999999	23150	23150	23142	999999	23148	23148	23140	999999	23137	23129	999999	999999	23141	23133	999999	999999	23145	23137	999999	999999	0
23170	23170	999999	999999	999999	0	999999	999999	23190	23190	999999	999999	23142	23142	23134	999999	23166	23166	23166	23158	23173	23173	999999	999999	23135	23135	23127	999999	23194	23194	999999	999999	23178	23178	999999	999999	23169	23169	999999	999999	23179	23179	999999	999999	23158	23158	23158	23150	0
23170	23170	23170	999999	999999	999999	0	999999	23190	23190	23190	999999	23142	23142	23142	23134	23166	23166	23166	999999	23173	23173	23173	999999	23135	23135	23135	23127	23194	23194	23194	999999	23178	23178	23178	999999	23169	23169	23169	999999	23179	23179	23179	999999	23158	23158	23158	999999	0
23170	23170	23170	23170	999999	999999	999999	0	23190	23190	23190	23190	23142	23142	23142	23142	23166	23166	23166	23166	23173	23173	23173	23173	23135	23135	23135	23135	23194	23194	23194	23194	23178	23178	23178	23178	23169	23169	23169	23169	23179	23179	23179	23179	23158	23158	23158	23158	0
23170	23170	23170	23162	0	999999	999999	999999	23190	999999	999999	999999	23142	23134	999999	999999	23166	23166	23158	999999	23173	23173	23173	23165	23135	23127	999999	999999	23194	999999	999999	999999	23178	23178	23178	23170	23169	23169	23169	23161	23179	23179	23179	23171	23158	23158	23150	999999	0
23147	23147	23147	23139	23190	23190	999999	999999	999999	0	999999	999999	23180	23180	999999	999999	23166	23166	23166	23158	23180	23180	999999	999999	23187	23187	999999	999999	23140	23140	23132	999999	23147	23147	23147	23139	23148	23148	23148	23140	23151	23151	23151	23143	23160	23160	23160	23152	0
23147	23147	23147	999999	23190	23190	23190	999999	999999	999999	0	999999	23180	23180	23180	999999	23166	23166	23166	999999	23180	23180	23180	999999	23187	23187	23187	999999	23140	23140	23140	23132	23147	23147	23147	999999	23148	23148	23148	999999	23151	23151	23151	999999	23160	23160	23160	999999	0
23147	23147	23147	23147	23190	23190	23190	23190	999999	999999	999999	0	23180	23180	23180	23180	23166	23166	23166	23166	23180	23180	23180	23180	23187	23187	23187	23187	23140	23140	23140	23140	23147	23147	23147	23147	23148	23148	23148	23148	23151	23151	23151	23151	23160	23160	23160	23160	0
23147	23147	23139	999999	23190	999999	999999	999999	0	999999	999999	999999	23180	23180	23180	23172	23166	23166	23158	999999	23180	23180	23180	23172	23187	23187	23187	23179	23140	23132	999999	999999	23147	23147	23139	999999	23148	23148	23140	999999	23151	23151	23143	999999	23160	23160	23152	999999	0
23158	23158	23158	23150	23142	23142	23134	999999	23180	23180	999999	999999	999999	0	999999	999999	23167	23167	23167	23159	23157	23157	23157	23149	23147	23147	23147	23139	23182	23182	999999	999999	23173	23173	999999	999999	23162	23162	23162	23154	23165	23165	23165	23157	23154	23154	23154	23146	0
23158	23158	23158	999999	23142	23142	23142	23134	23180	23180	23180	999999	999999	999999	0	999999	23167	23167	23167	999999	23157	23157	23157	999999	23147	23147	23147	999999	23182	23182	23182	999999	23173	23173	23173	999999	23162	23162	23162	999999	23165	23165	23165	999999	23154	23154	23154	999999	0
23158	23158	23158	23158	23142	23142	23142	23142	23180	23180	23180	23180	999999	999999	999999	0	23167	23167	23167	23167	23157	23157	23157	23157	23147	23147	23147	23147	23182	23182	23182	23182	23173	23173	23173	23173	23162	23162	23162	23162	23165	23165	23165	23165	23154	23154	23154	23154	0
23158	23158	23150	999999	23142	23134	999999	999999	23180	23180	23180	23172	0	999999	999999	999999	23167	23167	23159	999999	23157	23157	23149	999999	23147	23147	23139	999999	23182	23182	23182	23174	23173	23173	23173	23165	23162	23162	23154	999999	23165	23165	23157	999999	23154	23154	23146	999999	0
23158	23158	23158	23150	23166	23166	23166	23158	23166	23166	23166	23158	23167	23167	23167	23159	999999	0	999999	999999	23189	23189	999999	999999	23158	23158	23158	23150	23177	23177	999999	999999	23145	23145	23137	999999	23148	23148	23148	23140	23174	23174	999999	999999	23141	23141	23133	999999	0
23158	23158	23158	999999	23166	23166	23166	999999	23166	23166	23166	999999	23167	23167	23167	999999	999999	999999	0	999999	23189	23189	23189	999999	23158	23158	23158	999999	23177	23177	23177	999999	23145	23145	23145	23137	23148	23148	23148	999999	23174	23174	23174	999999	23141	23141	23141	23133	0
23158	23158	23158	23158	23166	23166	23166	23166	23166	23166	23166	23166	23167	23167	23167	23167	999999	999999	999999	0	23189	23189	23189	23189	23158	23158	23158	23158	23177	23177	23177	23177	23145	23145	23145	23145	23148	23148	23148	23148	23174	23174	23174	23174	23141	23141	23141	23141	0
23158	23158	23150	999999	23166	23166	23158	999999	23166	23166	23158	999999	23167	23167	23159	999999	0	999999	999999	999999	23189	23189	23189	23181	23158	23158	23150	999999	23177	23177	23177	23169	23145	23137	999999	999999	23148	23148	23140	999999	23174	23174	23174	23166	23141	23133	999999	999999	0
23162	23162	23162	23154	23173	23173	999999	999999	23180	23180	999999	999999	23157	23157	23157	23149	23189	23189	999999	999999	999999	0	999999	999999	23178	23178	999999	999999	23174	23174	999999	999999	23185	23185	999999	999999	23173	23173	999999	999999	23155	23155	23155	23147	23173	23173	999999	999999	0
23162	23162	23162	999999	23173	23173	23173	999999	23180	23180	23180	999999	23157	23157	23157	999999	23189	23189	23189	999999	999999	999999	0	999999	23178	23178	23178	999999	23174	23174	23174	999999	23185	23185	23185	999999	23173	23173	23173	999999	23155	23155	23155	999999	23173	23173	23173	999999	0
23162	23162	23162	23162	23173	23173	23173	23173	23180	23180	23180	23180	23157	23157	23157	23157	23189	23189	23189	23189	999999	999999	999999	0	23178	23178	23178	23178	23174	23174	23174	23174	23185	23185	23185	23185	23173	23173	23173	23173	23155	23155	23155	23155	23173	23173	23173	23173	0
23162	23162	23154	999999	23173	23173	23173	23165	23180	23180	23180	23172	23157	23157	23149	999999	23189	23189	23189	23181	0	999999	999999	999999	23178	23178	23178	23170	23174	23174	23174	23166	23185	23185	23185	23177	23173	23173	23173	23165	23155	23155	23147	999999	23173	23173	23173	23165	0
23168	23168	23168	23160	23135	23135	23127	999999	23187	23187	999999	999999	23147	23147	23147	23139	23158	23158	23158	23150	23178	23178	999999	999999	999999	0	999999	999999	23193	23193	999999	999999	23172	23172	999999	999999	23165	23165	23165	23157	23179	23179	999999	999999	23153	23153	23153	23145	0
23168	23168	23168	999999	23135	23135	23135	23127	23187	23187	23187	999999	23147	23147	23147	999999	23158	23158	23158	999999	23178	23178	23178	999999	999999	999999	0	999999	23193	23193	23193	999999	23172	23172	23172	999999	23165	23165	23165	999999	23179	23179	23179	999999	23153	23153	23153	999999	0
23168	23168	23168	23168	23135	23135	23135	23135	23187	23187	23187	23187	23147	23147	23147	23147	23158	23158	23158	23158	23178	23178	23178	23178	999999	999999	999999	0	23193	23193	23193	23193	23172	23172	23172	23172	23165	23165	23165	23165	23179	23179	23179	23179	23153	23153	23153	23153	0
23168	23168	23160	999999	23135	23127	999999	999999	23187	23187	23187	23179	23147	23147	23139	999999	23158	23158	23150	999999	23178	23178	23178	23170	0	999999	999999	999999	23193	999999	999999	999999	23172	23172	23172	23164	23165	23165	23157	999999	23179	23179	23179	23171	23153	23153	23145	999999	0
23150	23150	23150	23142	23194	23194	999999	999999	23140	23140	23132	999999	23182	23182	999999	999999	23177	23177	999999	999999	23174	23174	999999	999999	23193	23193	999999	999999	999999	0	999999	999999	23160	23160	23160	23152	23156	23156	23156	23148	23145	23145	23137	999999	23168	23168	23168	23160	0
23150	23150	23150	999999	23194	23194	23194	999999	23140	23140	23140	23132	23182	23182	23182	999999	23177	23177	23177	999999	23174	23174	23174	999999	23193	23193	23193	999999	999999	999999	0	999999	23160	23160	23160	999999	23156	23156	23156	999999	23145	23145	23145	23137	23168	23168	23168	999999	0
23150	23150	23150	23150	23194	23194	23194	23194	23140	23140	23140	23140	23182	23182	23182	23182	23177	23177	23177	23177	23174	23174	23174	23174	23193	23193	23193	23193	999999	999999	999999	0	23160	23160	23160	23160	23156	23156	23156	23156	23145	23145	23145	23145	23168	23168	23168	23168	0
23150	23150	23142	999999	23194	999999	999999	999999	23140	23132	999999	999999	23182	23182	23182	23174	23177	23177	23177	23169	23174	23174	23174	23166	23193	999999	999999	999999	0	999999	999999	999999	23160	23160	23152	999999	23156	23156	23148	999999	23145	23137	999999	999999	23168	23168	23160	999999	0
23148	23148	23148	23140	23178	23178	999999	999999	23147	23147	23147	23139	23173	23173	999999	999999	23145	23145	23137	999999	23185	23185	999999	999999	23172	23172	999999	999999	23160	23160	23160	23152	999999	0	999999	999999	23138	23138	23130	999999	23162	23162	23162	23154	23145	23145	23137	999999	0
23148	23148	23148	999999	23178	23178	23178	999999	23147	23147	23147	999999	23173	23173	23173	999999	23145	23145	23145	23137	23185	23185	23185	999999	23172	23172	23172	999999	23160	23160	23160	999999	999999	999999	0	999999	23138	23138	23138	23130	23162	23162	23162	999999	23145	23145	23145	23137	0
23148	23148	23148	23148	23178	23178	23178	23178	23147	23147	23147	23147	23173	23173	23173	23173	23145	23145	23145	23145	23185	23185	23185	23185	23172	23172	23172	23172	23160	23160	23160	23160	999999	999999	999999	0	23138	23138	23138	23138	23162	23162	23162	23162	23145	23145	23145	23145	0
23148	23148	23140	999999	23178	23178	23178	23170	23147	23147	23139	999999	23173	23173	23173	23165	23145	23137	999999	999999	23185	23185	23185	23177	23172	23172	23172	23164	23160	23160	23152	999999	0	999999	999999	999999	23138	23130	999999	999999	23162	23162	23154	999999	23145	23137	999999	999999	0
23137	23137	23129	999999	23169	23169	999999	999999	23148	23148	23148	23140	23162	23162	23162	23154	23148	23148	23148	23140	23173	23173	999999	999999	23165	23165	23165	23157	23156	23156	23156	23148	23138	23138	23130	999999	999999	0	999999	999999	23152	23152	23152	23144	23138	23138	23130	999999	0
23137	23137	23137	23129	23169	23169	23169	999999	23148	23148	23148	999999	23162	23162	23162	999999	23148	23148	23148	999999	23173	23173	23173	999999	23165	23165	23165	999999	23156	23156	23156	999999	23138	23138	23138	23130	999999	999999	0	999999	23152	23152	23152	999999	23138	23138	23138	23130	0
23137	23137	23137	23137	23169	23169	23169	23169	23148	23148	23148	23148	23162	23162	23162	23162	23148	23148	23148	23148	23173	23173	23173	23173	23165	23165	23165	23165	23156	23156	23156	23156	23138	23138	23138	23138	999999	999999	999999	0	23152	23152	23152	23152	23138	23138	23138	23138	0
23137	23129	999999	999999	23169	23169	23169	23161	23148	23148	23140	999999	23162	23162	23154	999999	23148	23148	23140	999999	23173	23173	23173	23165	23165	23165	23157	999999	23156	23156	23148	999999	23138	23130	999999	999999	0	999999	999999	999999	23152	23152	23144	999999	23138	23130	999999	999999	0
23141	23141	23133	999999	23179	23179	999999	999999	23151	23151	23151	23143	23165	23165	23165	23157	23174	23174	999999	999999	23155	23155	23155	23147	23179	23179	999999	999999	23145	23145	23137	999999	23162	23162	23162	23154	23152	23152	23152	23144	999999	0	999999	999999	23160	23160	23160	23152	0
23141	23141	23141	23133	23179	23179	23179	999999	23151	23151	23151	999999	23165	23165	23165	999999	23174	23174	23174	999999	23155	23155	23155	999999	23179	23179	23179	999999	23145	23145	23145	23137	23162	23162	23162	999999	23152	23152	23152	999999	999999	999999	0	999999	23160	23160	23160	999999	0
23141	23141	23141	23141	23179	23179	23179	23179	23151	23151	23151	23151	23165	23165	23165	23165	23174	23174	23174	23174	23155	23155	23155	23155	23179	23179	23179	23179	23145	23145	23145	23145	23162	23162	23162	23162	23152	23152	23152	23152	999999	999999	999999	0	23160	23160	23160	23160	0
23141	23133	999999	999999	23179	23179	23179	23171	23151	23151	23143	999999	23165	23165	23157	999999	23174	23174	23174	23166	23155	23155	23147	999999	23179	23179	23179	23171	23145	23137	999999	999999	23162	23162	23154	999999	23152	23152	23144	999999	0	999999	999999	999999	23160	23160	23152	999999	0
23145	23145	23137	999999	23158	23158	23158	23150	23160	23160	23160	23152	23154	23154	23154	23146	23141	23141	23133	999999	23173	23173	999999	999999	23153	23153	23153	23145	23168	23168	23168	23160	23145	23145	23137	999999	23138	23138	23130	999999	23160	23160	23160	23152	999999	0	999999	999999	0
23145	23145	23145	23137	23158	23158	23158	999999	23160	23160	23160	999999	23154	23154	23154	999999	23141	23141	23141	23133	23173	23173	23173	999999	23153	23153	23153	999999	23168	23168	23168	999999	23145	23145	23145	23137	23138	23138	23138	23130	23160	23160	23160	999999	999999	999999	0	999999	0
23145	23145	23145	23145	23158	23158	23158	23158	23160	23160	23160	23160	23154	23154	23154	23154	23141	23141	23141	23141	23173	23173	23173	23173	23153	23153	23153	23153	23168	23168	23168	23168	23145	23145	23145	23145	23138	23138	23138	23138	23160	23160	23160	23160	999999	999999	999999	0	0
23145	23137	999999	999999	23158	23158	23150	999999	23160	23160	23152	999999	23154	23154	23146	999999	23141	23133	999999	999999	23173	23173	23173	23165	23153	23153	23145	999999	23168	23168	23160	999999	23145	23137	999999	999999	23138	23130	999999	999999	23160	23160	23152	999999	0	999999	999999	999999	0
23118	999999	999999	999999	23118	999999	999999	999999	23118	999999	999999	999999	23118	999999	999999	999999	23118	999999	999999	999999	23118	999999	999999	999999	23118	999999	999999	999999	23118	999999	999999	999999	23118	999999	999999	999999	23118	999999	999999	999999	23118	999999	999999	999999	23118	999999	999999	999999	999999
GTSP_SET_SECTION:
1 1 2 3 4 -1
2 5 6 7 8 -1
3 9 10 11 12 -1
4 13 14 15 16 -1
5 17 18 19 20 -1
6 21 22 23 24 -1
7 25 26 27 28 -1
8 29 30 31 32 -1
9 33 34 35 36 -1
10 37 38 39 40 -1
11 41 42 43 44 -1
12 45 46 47 48 -1
13 49 -1
EOF